single_objective/SL-DABL/OP/problems/op/OPLib-master/instances/gen2/p654-gen2-50.oplib
NAME : p654
COMMENT : Drilling problem (Reinelt)
TYPE : OP
DIMENSION : 654
COST_LIMIT : 17322
EDGE_WEIGHT_TYPE : EUC_2D
NODE_COORD_SECTION
1 1.24500e+03 1.25500e+03
2 1.80750e+03 2.19250e+03
3 1.82250e+03 2.20750e+03
4 1.86750e+03 2.73250e+03
5 2.37750e+03 2.61250e+03
6 2.46750e+03 3.58750e+03
7 2.49750e+03 3.58750e+03
8 2.57250e+03 3.67750e+03
9 2.64750e+03 3.78250e+03
10 2.66250e+03 3.97750e+03
11 3.30750e+03 3.37750e+03
12 3.33750e+03 3.34750e+03
13 3.32250e+03 3.63250e+03
14 3.71250e+03 3.67750e+03
15 4.26750e+03 2.37250e+03
16 5.65500e+03 1.25500e+03
17 4.85250e+03 2.50750e+03
18 4.88250e+03 3.49750e+03
19 4.85250e+03 3.61750e+03
20 4.40250e+03 4.06750e+03
21 4.41750e+03 4.05250e+03
22 4.23750e+03 4.02250e+03
23 4.26750e+03 4.00750e+03
24 4.40250e+03 4.00750e+03
25 4.35750e+03 3.97750e+03
26 4.41750e+03 3.96250e+03
27 4.35750e+03 3.94750e+03
28 4.31250e+03 3.93250e+03
29 4.25250e+03 3.93250e+03
30 4.22250e+03 3.90250e+03
31 4.32750e+03 3.88750e+03
32 4.29750e+03 3.87250e+03
33 4.29750e+03 3.84250e+03
34 4.32750e+03 3.82750e+03
35 4.20750e+03 3.82750e+03
36 4.22250e+03 3.76750e+03
37 4.25250e+03 3.76750e+03
38 4.35750e+03 3.75250e+03
39 4.35750e+03 3.72250e+03
40 4.23750e+03 3.72250e+03
41 4.26750e+03 3.70750e+03
42 4.31250e+03 3.69250e+03
43 4.25250e+03 3.66250e+03
44 4.31250e+03 3.64750e+03
45 4.29750e+03 3.63250e+03
46 4.34250e+03 3.61750e+03
47 4.22250e+03 3.60250e+03
48 4.32750e+03 3.58750e+03
49 4.32750e+03 3.52750e+03
50 4.38750e+03 3.46750e+03
51 4.28250e+03 3.46750e+03
52 4.20750e+03 3.46750e+03
53 4.34250e+03 3.43750e+03
54 4.32750e+03 3.42250e+03
55 4.32750e+03 3.39250e+03
56 4.34250e+03 3.37750e+03
57 4.23750e+03 3.36250e+03
58 4.38750e+03 3.31750e+03
59 4.31250e+03 3.27250e+03
60 4.22250e+03 3.25750e+03
61 4.20750e+03 3.22750e+03
62 3.69750e+03 3.48250e+03
63 2.69250e+03 4.66750e+03
64 2.64750e+03 4.68250e+03
65 3.06750e+03 4.92250e+03
66 3.12750e+03 5.04250e+03
67 3.08250e+03 5.08750e+03
68 3.00750e+03 5.11750e+03
69 3.14250e+03 5.22250e+03
70 2.70750e+03 5.11750e+03
71 2.69250e+03 5.05750e+03
72 2.57250e+03 5.02750e+03
73 2.37750e+03 5.13250e+03
74 1.47750e+03 4.02250e+03
75 1.23750e+03 3.99250e+03
76 1.35750e+03 3.96250e+03
77 1.41750e+03 3.93250e+03
78 1.25250e+03 3.93250e+03
79 1.31250e+03 3.90250e+03
80 1.28250e+03 3.82750e+03
81 1.37250e+03 3.82750e+03
82 1.50750e+03 3.82750e+03
83 1.26750e+03 3.81250e+03
84 1.28250e+03 3.79750e+03
85 1.26750e+03 3.76750e+03
86 1.43250e+03 3.76750e+03
87 1.37250e+03 3.73750e+03
88 1.32750e+03 3.72250e+03
89 1.26750e+03 3.70750e+03
90 1.49250e+03 3.66250e+03
91 1.26750e+03 3.63250e+03
92 1.35750e+03 3.60250e+03
93 1.50750e+03 3.58750e+03
94 1.26750e+03 3.57250e+03
95 1.38750e+03 3.52750e+03
96 1.34250e+03 3.51250e+03
97 1.32750e+03 3.45250e+03
98 1.34250e+03 3.37750e+03
99 1.32750e+03 3.31750e+03
100 1.43250e+03 3.27250e+03
101 1.46250e+03 3.25750e+03
102 1.40250e+03 3.22750e+03
103 1.80750e+03 4.71250e+03
104 1.82250e+03 4.72750e+03
105 1.86750e+03 5.25250e+03
106 1.24500e+03 5.84500e+03
107 1.04250e+03 2.46250e+03
108 1.05750e+03 2.46250e+03
109 1.07250e+03 2.46250e+03
110 1.08750e+03 2.46250e+03
111 1.04250e+03 2.47750e+03
112 1.05750e+03 2.47750e+03
113 1.07250e+03 2.47750e+03
114 1.08750e+03 2.47750e+03
115 1.04250e+03 2.49250e+03
116 1.05750e+03 2.49250e+03
117 1.07250e+03 2.49250e+03
118 1.08750e+03 2.49250e+03
119 1.04250e+03 2.50750e+03
120 1.05750e+03 2.50750e+03
121 1.07250e+03 2.50750e+03
122 1.08750e+03 2.50750e+03
123 1.04250e+03 2.52250e+03
124 1.05750e+03 2.52250e+03
125 1.07250e+03 2.52250e+03
126 1.08750e+03 2.52250e+03
127 1.04250e+03 2.53750e+03
128 1.05750e+03 2.53750e+03
129 1.07250e+03 2.53750e+03
130 1.08750e+03 2.53750e+03
131 1.04250e+03 2.55250e+03
132 1.05750e+03 2.55250e+03
133 1.07250e+03 2.55250e+03
134 1.08750e+03 2.55250e+03
135 1.04250e+03 2.56750e+03
136 1.05750e+03 2.56750e+03
137 1.07250e+03 2.56750e+03
138 1.08750e+03 2.56750e+03
139 1.04250e+03 2.58250e+03
140 1.05750e+03 2.58250e+03
141 1.07250e+03 2.58250e+03
142 1.08750e+03 2.58250e+03
143 1.04250e+03 2.59750e+03
144 1.05750e+03 2.59750e+03
145 1.07250e+03 2.59750e+03
146 1.08750e+03 2.59750e+03
147 1.04250e+03 2.61250e+03
148 1.05750e+03 2.61250e+03
149 1.07250e+03 2.61250e+03
150 1.08750e+03 2.61250e+03
151 1.04250e+03 2.62750e+03
152 1.05750e+03 2.62750e+03
153 1.07250e+03 2.62750e+03
154 1.08750e+03 2.62750e+03
155 1.04250e+03 2.64250e+03
156 1.05750e+03 2.64250e+03
157 1.07250e+03 2.64250e+03
158 1.08750e+03 2.64250e+03
159 1.04250e+03 2.65750e+03
160 1.05750e+03 2.65750e+03
161 1.07250e+03 2.65750e+03
162 1.08750e+03 2.65750e+03
163 1.04250e+03 2.67250e+03
164 1.05750e+03 2.67250e+03
165 1.07250e+03 2.67250e+03
166 1.08750e+03 2.67250e+03
167 1.04250e+03 2.68750e+03
168 1.05750e+03 2.68750e+03
169 1.07250e+03 2.68750e+03
170 1.08750e+03 2.68750e+03
171 1.04250e+03 2.70250e+03
172 1.05750e+03 2.70250e+03
173 1.07250e+03 2.70250e+03
174 1.08750e+03 2.70250e+03
175 1.04250e+03 2.71750e+03
176 1.05750e+03 2.71750e+03
177 1.07250e+03 2.71750e+03
178 1.08750e+03 2.71750e+03
179 1.04250e+03 2.73250e+03
180 1.05750e+03 2.73250e+03
181 1.07250e+03 2.73250e+03
182 1.08750e+03 2.73250e+03
183 1.04250e+03 2.74750e+03
184 1.05750e+03 2.74750e+03
185 1.07250e+03 2.74750e+03
186 1.08750e+03 2.74750e+03
187 1.04250e+03 2.76250e+03
188 1.05750e+03 2.76250e+03
189 1.07250e+03 2.76250e+03
190 1.08750e+03 2.76250e+03
191 1.04250e+03 2.77750e+03
192 1.05750e+03 2.77750e+03
193 1.07250e+03 2.77750e+03
194 1.08750e+03 2.77750e+03
195 1.04250e+03 2.79250e+03
196 1.05750e+03 2.79250e+03
197 1.07250e+03 2.79250e+03
198 1.08750e+03 2.79250e+03
199 1.04250e+03 2.80750e+03
200 1.05750e+03 2.80750e+03
201 1.07250e+03 2.80750e+03
202 1.08750e+03 2.80750e+03
203 1.04250e+03 4.95250e+03
204 1.05750e+03 4.95250e+03
205 1.07250e+03 4.95250e+03
206 1.08750e+03 4.95250e+03
207 1.04250e+03 4.96750e+03
208 1.05750e+03 4.96750e+03
209 1.07250e+03 4.96750e+03
210 1.08750e+03 4.96750e+03
211 1.04250e+03 4.98250e+03
212 1.05750e+03 4.98250e+03
213 1.07250e+03 4.98250e+03
214 1.08750e+03 4.98250e+03
215 1.04250e+03 4.99750e+03
216 1.05750e+03 4.99750e+03
217 1.07250e+03 4.99750e+03
218 1.08750e+03 4.99750e+03
219 1.04250e+03 5.01250e+03
220 1.05750e+03 5.01250e+03
221 1.07250e+03 5.01250e+03
222 1.08750e+03 5.01250e+03
223 1.04250e+03 5.02750e+03
224 1.05750e+03 5.02750e+03
225 1.07250e+03 5.02750e+03
226 1.08750e+03 5.02750e+03
227 1.04250e+03 5.04250e+03
228 1.05750e+03 5.04250e+03
229 1.07250e+03 5.04250e+03
230 1.08750e+03 5.04250e+03
231 1.04250e+03 5.05750e+03
232 1.05750e+03 5.05750e+03
233 1.07250e+03 5.05750e+03
234 1.08750e+03 5.05750e+03
235 1.04250e+03 5.07250e+03
236 1.05750e+03 5.07250e+03
237 1.07250e+03 5.07250e+03
238 1.08750e+03 5.07250e+03
239 1.04250e+03 5.08750e+03
240 1.05750e+03 5.08750e+03
241 1.07250e+03 5.08750e+03
242 1.08750e+03 5.08750e+03
243 1.04250e+03 5.10250e+03
244 1.05750e+03 5.10250e+03
245 1.07250e+03 5.10250e+03
246 1.08750e+03 5.10250e+03
247 1.04250e+03 5.11750e+03
248 1.05750e+03 5.11750e+03
249 1.07250e+03 5.11750e+03
250 1.08750e+03 5.11750e+03
251 1.04250e+03 5.13250e+03
252 1.05750e+03 5.13250e+03
253 1.07250e+03 5.13250e+03
254 1.08750e+03 5.13250e+03
255 1.04250e+03 5.14750e+03
256 1.05750e+03 5.14750e+03
257 1.07250e+03 5.14750e+03
258 1.08750e+03 5.14750e+03
259 1.04250e+03 5.16250e+03
260 1.05750e+03 5.16250e+03
261 1.07250e+03 5.16250e+03
262 1.08750e+03 5.16250e+03
263 1.04250e+03 5.17750e+03
264 1.05750e+03 5.17750e+03
265 1.07250e+03 5.17750e+03
266 1.08750e+03 5.17750e+03
267 1.04250e+03 5.19250e+03
268 1.05750e+03 5.19250e+03
269 1.07250e+03 5.19250e+03
270 1.08750e+03 5.19250e+03
271 1.04250e+03 5.20750e+03
272 1.05750e+03 5.20750e+03
273 1.07250e+03 5.20750e+03
274 1.08750e+03 5.20750e+03
275 1.04250e+03 5.22250e+03
276 1.05750e+03 5.22250e+03
277 1.07250e+03 5.22250e+03
278 1.08750e+03 5.22250e+03
279 1.04250e+03 5.23750e+03
280 1.05750e+03 5.23750e+03
281 1.07250e+03 5.23750e+03
282 1.08750e+03 5.23750e+03
283 1.04250e+03 5.25250e+03
284 1.05750e+03 5.25250e+03
285 1.07250e+03 5.25250e+03
286 1.08750e+03 5.25250e+03
287 1.04250e+03 5.26750e+03
288 1.05750e+03 5.26750e+03
289 1.07250e+03 5.26750e+03
290 1.08750e+03 5.26750e+03
291 1.04250e+03 5.28250e+03
292 1.05750e+03 5.28250e+03
293 1.07250e+03 5.28250e+03
294 1.08750e+03 5.28250e+03
295 1.04250e+03 5.29750e+03
296 1.05750e+03 5.29750e+03
297 1.07250e+03 5.29750e+03
298 1.08750e+03 5.29750e+03
299 5.81250e+03 2.46250e+03
300 5.82750e+03 2.46250e+03
301 5.84250e+03 2.46250e+03
302 5.85750e+03 2.46250e+03
303 5.81250e+03 2.47750e+03
304 5.82750e+03 2.47750e+03
305 5.84250e+03 2.47750e+03
306 5.85750e+03 2.47750e+03
307 5.81250e+03 2.49250e+03
308 5.82750e+03 2.49250e+03
309 5.84250e+03 2.49250e+03
310 5.85750e+03 2.49250e+03
311 5.81250e+03 2.50750e+03
312 5.82750e+03 2.50750e+03
313 5.84250e+03 2.50750e+03
314 5.85750e+03 2.50750e+03
315 5.81250e+03 2.52250e+03
316 5.82750e+03 2.52250e+03
317 5.84250e+03 2.52250e+03
318 5.85750e+03 2.52250e+03
319 5.81250e+03 2.53750e+03
320 5.82750e+03 2.53750e+03
321 5.84250e+03 2.53750e+03
322 5.85750e+03 2.53750e+03
323 5.81250e+03 2.55250e+03
324 5.82750e+03 2.55250e+03
325 5.84250e+03 2.55250e+03
326 5.85750e+03 2.55250e+03
327 5.81250e+03 2.56750e+03
328 5.82750e+03 2.56750e+03
329 5.84250e+03 2.56750e+03
330 5.85750e+03 2.56750e+03
331 5.81250e+03 2.58250e+03
332 5.82750e+03 2.58250e+03
333 5.84250e+03 2.58250e+03
334 5.85750e+03 2.58250e+03
335 5.81250e+03 2.59750e+03
336 5.82750e+03 2.59750e+03
337 5.84250e+03 2.59750e+03
338 5.85750e+03 2.59750e+03
339 5.81250e+03 2.61250e+03
340 5.82750e+03 2.61250e+03
341 5.84250e+03 2.61250e+03
342 5.85750e+03 2.61250e+03
343 5.81250e+03 2.62750e+03
344 5.82750e+03 2.62750e+03
345 5.84250e+03 2.62750e+03
346 5.85750e+03 2.62750e+03
347 5.81250e+03 2.64250e+03
348 5.82750e+03 2.64250e+03
349 5.84250e+03 2.64250e+03
350 5.85750e+03 2.64250e+03
351 5.81250e+03 2.65750e+03
352 5.82750e+03 2.65750e+03
353 5.84250e+03 2.65750e+03
354 5.85750e+03 2.65750e+03
355 5.81250e+03 2.67250e+03
356 5.82750e+03 2.67250e+03
357 5.84250e+03 2.67250e+03
358 5.85750e+03 2.67250e+03
359 5.81250e+03 2.68750e+03
360 5.82750e+03 2.68750e+03
361 5.84250e+03 2.68750e+03
362 5.85750e+03 2.68750e+03
363 5.81250e+03 2.70250e+03
364 5.82750e+03 2.70250e+03
365 5.84250e+03 2.70250e+03
366 5.85750e+03 2.70250e+03
367 5.81250e+03 2.71750e+03
368 5.82750e+03 2.71750e+03
369 5.84250e+03 2.71750e+03
370 5.85750e+03 2.71750e+03
371 5.81250e+03 2.73250e+03
372 5.82750e+03 2.73250e+03
373 5.84250e+03 2.73250e+03
374 5.85750e+03 2.73250e+03
375 5.81250e+03 2.74750e+03
376 5.82750e+03 2.74750e+03
377 5.84250e+03 2.74750e+03
378 5.85750e+03 2.74750e+03
379 5.81250e+03 2.76250e+03
380 5.82750e+03 2.76250e+03
381 5.84250e+03 2.76250e+03
382 5.85750e+03 2.76250e+03
383 5.81250e+03 2.77750e+03
384 5.82750e+03 2.77750e+03
385 5.84250e+03 2.77750e+03
386 5.85750e+03 2.77750e+03
387 5.81250e+03 2.79250e+03
388 5.82750e+03 2.79250e+03
389 5.84250e+03 2.79250e+03
390 5.85750e+03 2.79250e+03
391 5.81250e+03 2.80750e+03
392 5.82750e+03 2.80750e+03
393 5.84250e+03 2.80750e+03
394 5.85750e+03 2.80750e+03
395 5.81250e+03 4.95250e+03
396 5.82750e+03 4.95250e+03
397 5.84250e+03 4.95250e+03
398 5.85750e+03 4.95250e+03
399 5.81250e+03 4.96750e+03
400 5.82750e+03 4.96750e+03
401 5.84250e+03 4.96750e+03
402 5.85750e+03 4.96750e+03
403 5.81250e+03 4.98250e+03
404 5.82750e+03 4.98250e+03
405 5.84250e+03 4.98250e+03
406 5.85750e+03 4.98250e+03
407 5.81250e+03 4.99750e+03
408 5.82750e+03 4.99750e+03
409 5.84250e+03 4.99750e+03
410 5.85750e+03 4.99750e+03
411 5.81250e+03 5.01250e+03
412 5.82750e+03 5.01250e+03
413 5.84250e+03 5.01250e+03
414 5.85750e+03 5.01250e+03
415 5.81250e+03 5.02750e+03
416 5.82750e+03 5.02750e+03
417 5.84250e+03 5.02750e+03
418 5.85750e+03 5.02750e+03
419 5.81250e+03 5.04250e+03
420 5.82750e+03 5.04250e+03
421 5.84250e+03 5.04250e+03
422 5.85750e+03 5.04250e+03
423 5.81250e+03 5.05750e+03
424 5.82750e+03 5.05750e+03
425 5.84250e+03 5.05750e+03
426 5.85750e+03 5.05750e+03
427 5.81250e+03 5.07250e+03
428 5.82750e+03 5.07250e+03
429 5.84250e+03 5.07250e+03
430 5.85750e+03 5.07250e+03
431 5.81250e+03 5.08750e+03
432 5.82750e+03 5.08750e+03
433 5.84250e+03 5.08750e+03
434 5.85750e+03 5.08750e+03
435 5.81250e+03 5.10250e+03
436 5.82750e+03 5.10250e+03
437 5.84250e+03 5.10250e+03
438 5.85750e+03 5.10250e+03
439 5.81250e+03 5.11750e+03
440 5.82750e+03 5.11750e+03
441 5.84250e+03 5.11750e+03
442 5.85750e+03 5.11750e+03
443 5.81250e+03 5.13250e+03
444 5.82750e+03 5.13250e+03
445 5.84250e+03 5.13250e+03
446 5.85750e+03 5.13250e+03
447 5.81250e+03 5.14750e+03
448 5.82750e+03 5.14750e+03
449 5.84250e+03 5.14750e+03
450 5.85750e+03 5.14750e+03
451 5.81250e+03 5.16250e+03
452 5.82750e+03 5.16250e+03
453 5.84250e+03 5.16250e+03
454 5.85750e+03 5.16250e+03
455 5.81250e+03 5.17750e+03
456 5.82750e+03 5.17750e+03
457 5.84250e+03 5.17750e+03
458 5.85750e+03 5.17750e+03
459 5.81250e+03 5.19250e+03
460 5.82750e+03 5.19250e+03
461 5.84250e+03 5.19250e+03
462 5.85750e+03 5.19250e+03
463 5.81250e+03 5.20750e+03
464 5.82750e+03 5.20750e+03
465 5.84250e+03 5.20750e+03
466 5.85750e+03 5.20750e+03
467 5.81250e+03 5.22250e+03
468 5.82750e+03 5.22250e+03
469 5.84250e+03 5.22250e+03
470 5.85750e+03 5.22250e+03
471 5.81250e+03 5.23750e+03
472 5.82750e+03 5.23750e+03
473 5.84250e+03 5.23750e+03
474 5.85750e+03 5.23750e+03
475 5.81250e+03 5.25250e+03
476 5.82750e+03 5.25250e+03
477 5.84250e+03 5.25250e+03
478 5.85750e+03 5.25250e+03
479 5.81250e+03 5.26750e+03
480 5.82750e+03 5.26750e+03
481 5.84250e+03 5.26750e+03
482 5.85750e+03 5.26750e+03
483 5.81250e+03 5.28250e+03
484 5.82750e+03 5.28250e+03
485 5.84250e+03 5.28250e+03
486 5.85750e+03 5.28250e+03
487 5.81250e+03 5.29750e+03
488 5.82750e+03 5.29750e+03
489 5.84250e+03 5.29750e+03
490 5.85750e+03 5.29750e+03
491 1.04250e+03 1.80250e+03
492 1.04250e+03 1.81750e+03
493 1.04250e+03 1.83250e+03
494 1.04250e+03 1.87750e+03
495 1.04250e+03 1.89250e+03
496 1.04250e+03 1.92250e+03
497 1.04250e+03 1.95250e+03
498 1.04250e+03 1.99750e+03
499 1.04250e+03 2.07250e+03
500 1.04250e+03 2.11750e+03
501 1.04250e+03 2.16250e+03
502 1.04250e+03 2.22250e+03
503 1.04250e+03 2.25250e+03
504 1.04250e+03 2.35750e+03
505 1.04250e+03 2.40250e+03
506 1.04250e+03 4.29250e+03
507 1.04250e+03 4.30750e+03
508 1.04250e+03 4.32250e+03
509 1.04250e+03 4.36750e+03
510 1.04250e+03 4.38250e+03
511 1.04250e+03 4.41250e+03
512 1.04250e+03 4.44250e+03
513 1.04250e+03 4.48750e+03
514 1.04250e+03 4.56250e+03
515 1.04250e+03 4.60750e+03
516 1.04250e+03 4.65250e+03
517 1.04250e+03 4.71250e+03
518 1.04250e+03 4.74250e+03
519 1.04250e+03 4.84750e+03
520 1.04250e+03 4.89250e+03
521 1.05750e+03 1.84750e+03
522 1.05750e+03 1.95250e+03
523 1.05750e+03 2.02750e+03
524 1.05750e+03 2.08750e+03
525 1.05750e+03 2.14750e+03
526 1.05750e+03 2.28250e+03
527 1.05750e+03 4.33750e+03
528 1.05750e+03 4.44250e+03
529 1.05750e+03 4.51750e+03
530 1.05750e+03 4.57750e+03
531 1.05750e+03 4.63750e+03
532 1.05750e+03 4.77250e+03
533 1.07250e+03 1.81750e+03
534 1.07250e+03 1.83250e+03
535 1.07250e+03 1.89250e+03
536 1.07250e+03 1.96750e+03
537 1.07250e+03 2.16250e+03
538 1.07250e+03 2.22250e+03
539 1.07250e+03 2.28250e+03
540 1.07250e+03 2.35750e+03
541 1.07250e+03 4.30750e+03
542 1.07250e+03 4.32250e+03
543 1.07250e+03 4.38250e+03
544 1.07250e+03 4.45750e+03
545 1.07250e+03 4.65250e+03
546 1.07250e+03 4.71250e+03
547 1.07250e+03 4.77250e+03
548 1.07250e+03 4.84750e+03
549 1.08750e+03 1.78750e+03
550 1.08750e+03 1.84750e+03
551 1.08750e+03 1.87750e+03
552 1.08750e+03 1.96750e+03
553 1.08750e+03 1.99750e+03
554 1.08750e+03 2.02750e+03
555 1.08750e+03 2.08750e+03
556 1.08750e+03 2.11750e+03
557 1.08750e+03 2.14750e+03
558 1.08750e+03 2.19250e+03
559 1.08750e+03 2.25250e+03
560 1.08750e+03 2.40250e+03
561 1.08750e+03 4.27750e+03
562 1.08750e+03 4.33750e+03
563 1.08750e+03 4.36750e+03
564 1.08750e+03 4.45750e+03
565 1.08750e+03 4.48750e+03
566 1.08750e+03 4.51750e+03
567 1.08750e+03 4.57750e+03
568 1.08750e+03 4.60750e+03
569 1.08750e+03 4.63750e+03
570 1.08750e+03 4.68250e+03
571 1.08750e+03 4.74250e+03
572 1.08750e+03 4.89250e+03
573 5.81250e+03 1.80250e+03
574 5.81250e+03 1.81750e+03
575 5.81250e+03 1.83250e+03
576 5.81250e+03 1.87750e+03
577 5.81250e+03 1.89250e+03
578 5.81250e+03 1.92250e+03
579 5.81250e+03 1.95250e+03
580 5.81250e+03 1.99750e+03
581 5.81250e+03 2.07250e+03
582 5.81250e+03 2.11750e+03
583 5.81250e+03 2.16250e+03
584 5.81250e+03 2.22250e+03
585 5.81250e+03 2.25250e+03
586 5.81250e+03 2.35750e+03
587 5.81250e+03 2.40250e+03
588 5.81250e+03 4.29250e+03
589 5.81250e+03 4.30750e+03
590 5.81250e+03 4.32250e+03
591 5.81250e+03 4.36750e+03
592 5.81250e+03 4.38250e+03
593 5.81250e+03 4.41250e+03
594 5.81250e+03 4.44250e+03
595 5.81250e+03 4.48750e+03
596 5.81250e+03 4.56250e+03
597 5.81250e+03 4.60750e+03
598 5.81250e+03 4.65250e+03
599 5.81250e+03 4.71250e+03
600 5.81250e+03 4.74250e+03
601 5.81250e+03 4.84750e+03
602 5.81250e+03 4.89250e+03
603 5.82750e+03 1.84750e+03
604 5.82750e+03 1.95250e+03
605 5.82750e+03 2.02750e+03
606 5.82750e+03 2.08750e+03
607 5.82750e+03 2.14750e+03
608 5.82750e+03 2.28250e+03
609 5.82750e+03 4.33750e+03
610 5.82750e+03 4.44250e+03
611 5.82750e+03 4.51750e+03
612 5.82750e+03 4.57750e+03
613 5.82750e+03 4.63750e+03
614 5.82750e+03 4.77250e+03
615 5.84250e+03 1.81750e+03
616 5.84250e+03 1.83250e+03
617 5.84250e+03 1.89250e+03
618 5.84250e+03 1.96750e+03
619 5.84250e+03 2.16250e+03
620 5.84250e+03 2.22250e+03
621 5.84250e+03 2.28250e+03
622 5.84250e+03 2.35750e+03
623 5.84250e+03 4.30750e+03
624 5.84250e+03 4.32250e+03
625 5.84250e+03 4.38250e+03
626 5.84250e+03 4.45750e+03
627 5.84250e+03 4.65250e+03
628 5.84250e+03 4.71250e+03
629 5.84250e+03 4.77250e+03
630 5.84250e+03 4.84750e+03
631 5.85750e+03 1.78750e+03
632 5.85750e+03 1.84750e+03
633 5.85750e+03 1.87750e+03
634 5.85750e+03 1.96750e+03
635 5.85750e+03 1.99750e+03
636 5.85750e+03 2.02750e+03
637 5.85750e+03 2.08750e+03
638 5.85750e+03 2.11750e+03
639 5.85750e+03 2.14750e+03
640 5.85750e+03 2.19250e+03
641 5.85750e+03 2.25250e+03
642 5.85750e+03 2.40250e+03
643 5.85750e+03 4.27750e+03
644 5.85750e+03 4.33750e+03
645 5.85750e+03 4.36750e+03
646 5.85750e+03 4.45750e+03
647 5.85750e+03 4.48750e+03
648 5.85750e+03 4.51750e+03
649 5.85750e+03 4.57750e+03
650 5.85750e+03 4.60750e+03
651 5.85750e+03 4.63750e+03
652 5.85750e+03 4.68250e+03
653 5.85750e+03 4.74250e+03
654 5.85750e+03 4.89250e+03
NODE_SCORE_SECTION
1 74
2 15
3 56
4 97
5 38
6 79
7 20
8 61
9 2
10 43
11 84
12 25
13 66
14 7
15 48
16 89
17 30
18 71
19 12
20 53
21 94
22 35
23 76
24 17
25 58
26 99
27 40
28 81
29 22
30 63
31 4
32 45
33 86
34 27
35 68
36 9
37 50
38 91
39 32
40 73
41 14
42 55
43 96
44 37
45 78
46 19
47 60
48 1
49 42
50 83
51 24
52 65
53 6
54 47
55 88
56 29
57 70
58 11
59 52
60 93
61 34
62 75
63 16
64 57
65 98
66 39
67 80
68 21
69 62
70 3
71 44
72 85
73 26
74 67
75 8
76 49
77 90
78 31
79 72
80 13
81 54
82 95
83 36
84 77
85 18
86 59
87 100
88 41
89 82
90 23
91 64
92 5
93 46
94 87
95 28
96 69
97 10
98 51
99 92
100 33
101 74
102 15
103 56
104 97
105 38
106 79
107 20
108 61
109 2
110 43
111 84
112 25
113 66
114 7
115 48
116 89
117 30
118 71
119 12
120 53
121 94
122 35
123 76
124 17
125 58
126 99
127 40
128 81
129 22
130 63
131 4
132 45
133 86
134 27
135 68
136 9
137 50
138 91
139 32
140 73
141 14
142 55
143 96
144 37
145 78
146 19
147 60
148 1
149 42
150 83
151 24
152 65
153 6
154 47
155 88
156 29
157 70
158 11
159 52
160 93
161 34
162 75
163 16
164 57
165 98
166 39
167 80
168 21
169 62
170 3
171 44
172 85
173 26
174 67
175 8
176 49
177 90
178 31
179 72
180 13
181 54
182 95
183 36
184 77
185 18
186 59
187 100
188 41
189 82
190 23
191 64
192 5
193 46
194 87
195 28
196 69
197 10
198 51
199 92
200 33
201 74
202 15
203 56
204 97
205 38
206 79
207 20
208 61
209 2
210 43
211 84
212 25
213 66
214 7
215 48
216 89
217 30
218 71
219 12
220 53
221 94
222 35
223 76
224 17
225 58
226 99
227 40
228 81
229 22
230 63
231 4
232 45
233 86
234 27
235 68
236 9
237 50
238 91
239 32
240 73
241 14
242 55
243 96
244 37
245 78
246 19
247 60
248 1
249 42
250 83
251 24
252 65
253 6
254 47
255 88
256 29
257 70
258 11
259 52
260 93
261 34
262 75
263 16
264 57
265 98
266 39
267 80
268 21
269 62
270 3
271 44
272 85
273 26
274 67
275 8
276 49
277 90
278 31
279 72
280 13
281 54
282 95
283 36
284 77
285 18
286 59
287 100
288 41
289 82
290 23
291 64
292 5
293 46
294 87
295 28
296 69
297 10
298 51
299 92
300 33
301 74
302 15
303 56
304 97
305 38
306 79
307 20
308 61
309 2
310 43
311 84
312 25
313 66
314 7
315 48
316 89
317 30
318 71
319 12
320 53
321 94
322 35
323 76
324 17
325 58
326 99
327 40
328 81
329 22
330 63
331 4
332 45
333 86
334 27
335 68
336 9
337 50
338 91
339 32
340 73
341 14
342 55
343 96
344 37
345 78
346 19
347 60
348 1
349 42
350 83
351 24
352 65
353 6
354 47
355 88
356 29
357 70
358 11
359 52
360 93
361 34
362 75
363 16
364 57
365 98
366 39
367 80
368 21
369 62
370 3
371 44
372 85
373 26
374 67
375 8
376 49
377 90
378 31
379 72
380 13
381 54
382 95
383 36
384 77
385 18
386 59
387 100
388 41
389 82
390 23
391 64
392 5
393 46
394 87
395 28
396 69
397 10
398 51
399 92
400 33
401 74
402 15
403 56
404 97
405 38
406 79
407 20
408 61
409 2
410 43
411 84
412 25
413 66
414 7
415 48
416 89
417 30
418 71
419 12
420 53
421 94
422 35
423 76
424 17
425 58
426 99
427 40
428 81
429 22
430 63
431 4
432 45
433 86
434 27
435 68
436 9
437 50
438 91
439 32
440 73
441 14
442 55
443 96
444 37
445 78
446 19
447 60
448 1
449 42
450 83
451 24
452 65
453 6
454 47
455 88
456 29
457 70
458 11
459 52
460 93
461 34
462 75
463 16
464 57
465 98
466 39
467 80
468 21
469 62
470 3
471 44
472 85
473 26
474 67
475 8
476 49
477 90
478 31
479 72
480 13
481 54
482 95
483 36
484 77
485 18
486 59
487 100
488 41
489 82
490 23
491 64
492 5
493 46
494 87
495 28
496 69
497 10
498 51
499 92
500 33
501 74
502 15
503 56
504 97
505 38
506 79
507 20
508 61
509 2
510 43
511 84
512 25
513 66
514 7
515 48
516 89
517 30
518 71
519 12
520 53
521 94
522 35
523 76
524 17
525 58
526 99
527 40
528 81
529 22
530 63
531 4
532 45
533 86
534 27
535 68
536 9
537 50
538 91
539 32
540 73
541 14
542 55
543 96
544 37
545 78
546 19
547 60
548 1
549 42
550 83
551 24
552 65
553 6
554 47
555 88
556 29
557 70
558 11
559 52
560 93
561 34
562 75
563 16
564 57
565 98
566 39
567 80
568 21
569 62
570 3
571 44
572 85
573 26
574 67
575 8
576 49
577 90
578 31
579 72
580 13
581 54
582 95
583 36
584 77
585 18
586 59
587 100
588 41
589 82
590 23
591 64
592 5
593 46
594 87
595 28
596 69
597 10
598 51
599 92
600 33
601 74
602 15
603 56
604 97
605 38
606 79
607 20
608 61
609 2
610 43
611 84
612 25
613 66
614 7
615 48
616 89
617 30
618 71
619 12
620 53
621 94
622 35
623 76
624 17
625 58
626 99
627 40
628 81
629 22
630 63
631 4
632 45
633 86
634 27
635 68
636 9
637 50
638 91
639 32
640 73
641 14
642 55
643 96
644 37
645 78
646 19
647 60
648 1
649 42
650 83
651 24
652 65
653 6
654 47
DEPOT_SECTION
1
-1
EOF
