single_objective/SL-DABL/OP/problems/op/OPLib-master/solutions/ea4op/gen2/p654-gen2-50.sol
NAME : p654
TYPE : OP
DIMENSION : 654
COST_LIMIT : 17322
ROUTE_NODES : 295
ROUTE_SCORE : 17821
ROUTE_COST : 17322
NODE_SEQUENCE_SECTION
1
299
303
304
300
301
305
306
310
313
312
308
311
315
316
317
318
322
326
330
329
325
321
320
323
327
328
332
333
337
338
342
346
350
349
345
344
340
335
339
343
347
351
352
356
355
359
360
361
357
362
366
365
364
367
371
372
368
369
373
374
378
382
386
390
394
393
389
388
384
381
377
376
379
383
387
391
56
55
54
52
104
103
206
210
213
217
218
222
221
225
226
230
234
233
237
238
242
245
249
250
254
257
261
262
266
265
269
273
274
278
277
281
282
286
290
289
293
294
298
297
296
295
291
287
288
284
283
279
276
272
271
267
268
264
260
259
255
256
252
251
247
243
244
240
239
235
232
228
227
223
220
216
215
211
212
208
204
203
520
519
547
532
518
517
516
545
569
568
567
566
565
564
544
528
512
511
510
543
563
562
542
527
508
507
506
75
78
83
84
85
89
91
94
96
97
98
99
201
200
199
195
196
191
187
183
179
176
177
181
184
188
189
193
198
194
190
186
182
178
174
173
172
171
167
168
164
165
169
166
162
161
160
159
155
156
157
152
151
147
143
139
135
140
144
145
149
150
146
142
138
137
133
132
128
127
123
120
121
125
129
130
126
122
118
117
113
112
116
115
111
108
560
540
504
526
503
538
537
557
556
555
524
499
523
498
522
496
495
494
521
550
534
533
549
-1
DEPOT_SECTION
1
-1
EOF
